Custom/7472357_14.param
$ LBS instance with n = 14, seed = 7472357
letting cards be [18,24,14,10,15,43,19,37,31,36,50,23,17,13]
